COLUMNS

passenger_count
pickup_ID
dropoff_ID
request_time_sec
pickup_district
dropoff_district
LDuals
IDuals
vehicle_ID
pick_position
drop_position

REQUESTS_INFO
1      923       463       30666     290       168       188       188       21        1         3         
4      1209      1227      30235     192       192       680       680       42        1         2         
2      734       529       30681     131       189       109       109       63        1         4         
1      643       640       30685     131       131       128       128       91        1         2         
1      551       480       30689     189       52        120       120       123       1         2         
1      1135      482       30670     50        189       178       178       129       1         2         
1      348       486       30688     299       199       152       152       142       1         3         
1      456       439       30672     52        189       104       104       155       1         3         
1      758       369       30665     131       52        141       141       161       1         2         
1      1031      851       30683     50        291       194       194       173       1         2         
2      234       219       30663     87        87        127       127       188       1         2         
1      905       699       30673     290       290       104       104       201       1         2         
1      388       437       30660     299       100       173       173       207       1         2         
1      972       535       30678     290       189       162       162       292       1         3         
1      1308      1286      30675     129       129       182       182       350       1         2         
1      479       483       30681     52        189       128       128       378       1         2         
1      393       670       30686     52        280       113       113       456       1         3         
1      948       749       30494     290       290       362       362       459       1         2         
1      643       527       30643     131       52        170       170       463       1         3         
1      873       1045      30633     291       291       180       180       478       1         2         
3      874       650       30679     291       189       148       148       550       1         2         
3      375       726       30672     119       290       151       151       556       1         3         
1      946       1054      30616     290       84        244       244       594       1         3         
1      924       698       30641     290       189       190       190       653       1         2         
3      527       311       30686     52        87        146       146       692       1         2         
1      1558      1326      30604     296       129       168       168       707       1         2         
2      1162      458       30673     84        52        164       164       787       1         3         
1      863       572       30580     290       131       217       217       853       1         3         
1      948       859       30681     290       290       175       175       894       1         2         
1      946       1010      30648     290       290       212       212       898       1         2         
3      771       375       30680     290       119       108       108       918       1         2         
1      375       675       30684     119       189       139       139       953       1         3         
1      1154      1269      30609     129       129       258       258       962       1         3         
1      1031      748       30515     50        290       362       362       1006      1         2         
1      939       1114      30671     291       50        207       207       1040      1         3         
3      874       650       30679     291       189       148       148       1045      1         2         
3      980       648       30537     291       189       316       316       1053      1         2         
1      944       550       30687     50        189       185       185       1074      1         3         
4      1235      1207      30670     84        192       207       207       1085      1         2         
1      924       990       30598     290       290       242       242       1145      1         2         
1      938       1086      30659     291       291       193       193       1150      1         2         
1      772       353       30661     290       119       121       121       1157      1         2         
1      980       968       30617     291       290       233       233       1195      1         3         
1      249       171       30661     266       286       169       169       1204      1         2         
3      994       770       30559     84        290       307       307       1220      1         2         
1      873       940       30649     291       291       164       164       1232      1         3         
1      772       669       30668     290       280       114       114       1345      1         3         
4      549       530       30670     52        189       153       153       1354      1         2         
2      1065      662       30634     291       131       220       220       1362      1         2         
1      527       602       30644     52        189       176       176       1363      1         4         
1      745       672       30669     290       189       130       130       1365      1         2         
1      1109      1106      30652     291       291       269       269       1367      1         2         
4      1026      1151      30664     291       291       231       231       1371      1         2         
1      835       534       30657     290       199       132       132       1392      1         4         
1      1022      694       30583     291       189       253       253       1405      1         4         
3      1001      980       30673     291       291       203       203       1408      1         2         
2      1044      936       30528     291       291       326       326       1423      1         3         
1      1044      771       30611     291       290       259       259       1423      2         4         
1      1087      923       30515     291       290       325       325       1436      1         3         
3      1021      748       30606     291       290       255       255       1439      1         3         
2      287       303       30675     299       299       126       126       1451      1         2         
1      285       331       30657     299       127       126       126       1459      1         2         
1      328       238       30593     299       87        231       231       1461      1         3         
2      783       583       30679     50        189       95        95        1473      1         4         
3      549       628       30673     52        189       150       150       1490      1         3         
1      945       674       30690     50        189       0         0         0         0         0         
4      620       416       30690     131       100       0         0         0         0         0         
2      794       250       30691     290       127       0         0         0         0         0         
1      310       117       30691     127       286       0         0         0         0         0         
4      267       116       30691     266       9         0         0         0         0         0         
1      308       604       30691     127       189       0         0         0         0         0         
1      460       394       30691     189       100       0         0         0         0         0         
1      691       703       30691     131       290       0         0         0         0         0         
1      287       451       30691     299       999       0         0         0         0         0         
1      354       604       30691     119       189       0         0         0         0         0         
1      351       574       30692     52        189       0         0         0         0         0         
1      568       1065      30692     52        291       0         0         0         0         0         
1      607       416       30692     189       100       0         0         0         0         0         
1      504       368       30692     52        299       0         0         0         0         0         
4      718       1005      30692     189       50        0         0         0         0         0         
2      291       416       30693     87        100       0         0         0         0         0         
3      444       604       30693     168       189       0         0         0         0         0         
1      65        314       30693     98        119       0         0         0         0         0         
1      654       772       30693     189       290       0         0         0         0         0         
1      701       726       30694     290       290       0         0         0         0         0         
1      726       554       30694     290       189       0         0         0         0         0         
1      512       627       30694     199       189       0         0         0         0         0         
3      460       358       30694     189       168       0         0         0         0         0         
3      460       358       30694     189       168       0         0         0         0         0         
3      43        391       30694     9         52        0         0         0         0         0         
3      43        391       30694     9         52        0         0         0         0         0         
1      905       35        30695     290       98        0         0         0         0         0         
3      946       507       30695     290       189       0         0         0         0         0         
3      946       507       30695     290       189       0         0         0         0         0         
3      464       327       30696     168       299       0         0         0         0         0         
3      464       327       30696     168       299       0         0         0         0         0         
1      723       1011      30696     290       84        0         0         0         0         0         
1      275       617       30696     87        131       0         0         0         0         0         
1      702       859       30696     290       290       0         0         0         0         0         
1      194       627       30696     207       189       0         0         0         0         0         
1      466       1530      30697     199       296       0         0         0         0         0         
1      573       604       30697     189       189       0         0         0         0         0         
1      233       579       30697     206       189       0         0         0         0         0         
1      745       627       30697     290       189       0         0         0         0         0         
4      675       723       30697     189       290       0         0         0         0         0         
1      120       352       30697     57        119       0         0         0         0         0         
1      483       581       30697     189       189       0         0         0         0         0         
1      527       604       30698     52        189       0         0         0         0         0         
1      745       604       30698     290       189       0         0         0         0         0         
1      527       439       30698     52        189       0         0         0         0         0         
1      903       839       30698     290       290       0         0         0         0         0         
4      693       629       30698     280       189       0         0         0         0         0         
2      410       652       30698     52        189       0         0         0         0         0         
3      410       652       30698     52        189       0         0         0         0         0         
1      523       388       30698     52        299       0         0         0         0         0         
1      485       248       30699     189       266       0         0         0         0         0         
4      286       597       30699     299       131       0         0         0         0         0         
1      972       631       30699     290       189       0         0         0         0         0         
1      598       581       30699     189       189       0         0         0         0         0         
1      768       575       30699     290       189       0         0         0         0         0         
1      238       331       30699     87        127       0         0         0         0         0         
3      755       43        30700     131       9         0         0         0         0         0         
2      755       43        30700     131       9         0         0         0         0         0         
1      813       483       30700     290       189       0         0         0         0         0         
1      983       674       30700     291       189       0         0         0         0         0         
1      772       605       30700     290       189       0         0         0         0         0         
1      603       697       30700     189       189       0         0         0         0         0         
1      304       118       30701     299       286       0         0         0         0         0         
1      745       835       30701     290       290       0         0         0         0         0         
1      981       717       30701     291       189       0         0         0         0         0         
1      233       252       30701     206       206       0         0         0         0         0         
1      646       616       30701     280       131       0         0         0         0         0         
1      721       749       30701     290       290       0         0         0         0         0         
2      600       79        30701     280       98        0         0         0         0         0         
1      646       616       30701     280       131       0         0         0         0         0         
1      353       463       30701     119       168       0         0         0         0         0         
1      735       577       30702     131       189       0         0         0         0         0         
1      584       377       30702     189       168       0         0         0         0         0         
1      485       335       30702     189       119       0         0         0         0         0         
1      556       189       30702     199       286       0         0         0         0         0         
2      408       20        30702     299       98        0         0         0         0         0         
1      791       905       30702     290       290       0         0         0         0         0         
2      485       350       30702     189       127       0         0         0         0         0         
3      485       350       30702     189       127       0         0         0         0         0         
1      723       690       30703     290       131       0         0         0         0         0         
1      296       350       30703     277       127       0         0         0         0         0         
1      1181      1181      30703     84        84        0         0         0         0         0         
1      599       461       30703     280       189       0         0         0         0         0         
1      557       727       30703     189       290       0         0         0         0         0         
1      849       603       30703     291       189       0         0         0         0         0         
3      395       377       30704     100       168       0         0         0         0         0         
2      395       377       30704     100       168       0         0         0         0         0         
3      286       533       30704     299       199       0         0         0         0         0         
3      286       533       30704     299       199       0         0         0         0         0         
1      527       438       30704     52        100       0         0         0         0         0         
1      904       769       30704     290       290       0         0         0         0         0         
1      560       652       30704     189       189       0         0         0         0         0         
1      60        506       30704     9         189       0         0         0         0         0         
1      881       1010      30704     290       290       0         0         0         0         0         
1      959       669       30705     291       280       0         0         0         0         0         
1      852       905       30706     291       290       0         0         0         0         0         
1      702       557       30706     290       189       0         0         0         0         0         
2      330       698       30706     127       189       0         0         0         0         0         
3      528       581       30706     52        189       0         0         0         0         0         
1      1001      602       30706     291       189       0         0         0         0         0         
2      1132      1032      30706     291       84        0         0         0         0         0         
1      457       410       30706     52        52        0         0         0         0         0         
3      645       639       30707     280       131       0         0         0         0         0         
1      499       555       30707     52        199       0         0         0         0         0         
2      745       758       30707     290       131       0         0         0         0         0         
1      1022      1010      30707     291       290       0         0         0         0         0         
1      949       79        30707     290       98        0         0         0         0         0         
1      673       267       30708     189       266       0         0         0         0         0         
1      441       629       30708     168       189       0         0         0         0         0         
3      63        349       30708     98        127       0         0         0         0         0         
1      486       629       30708     199       189       0         0         0         0         0         
1      509       576       30708     199       189       0         0         0         0         0         
1      947       804       30708     290       291       0         0         0         0         0         
2      31        526       30708     9         52        0         0         0         0         0         
2      504       436       30708     52        100       0         0         0         0         0         
3      504       436       30708     52        100       0         0         0         0         0         
2      65        78        30709     98        9         0         0         0         0         0         
1      369       430       30709     52        52        0         0         0         0         0         
2      558       651       30710     189       189       0         0         0         0         0         
3      558       651       30710     189       189       0         0         0         0         0         
2      961       527       30710     291       52        0         0         0         0         0         
1      330       134       30711     127       9         0         0         0         0         0         
1      412       737       30711     52        189       0         0         0         0         0         
1      813       926       30711     290       290       0         0         0         0         0         
1      484       333       30711     189       119       0         0         0         0         0         
1      533       506       30711     199       189       0         0         0         0         0         
1      373       504       30711     119       52        0         0         0         0         0         
1      484       628       30712     189       189       0         0         0         0         0         
1      328       511       30712     299       199       0         0         0         0         0         
1      609       698       30712     189       189       0         0         0         0         0         
1      925       626       30712     290       189       0         0         0         0         0         
1      597       568       30712     131       52        0         0         0         0         0         
1      465       96        30712     199       9         0         0         0         0         0         
1      387       533       30712     299       199       0         0         0         0         0         
1      654       398       30713     189       168       0         0         0         0         0         
1      510       479       30713     199       52        0         0         0         0         0         
1      850       96        30713     291       9         0         0         0         0         0         
1      748       32        30713     290       98        0         0         0         0         0         
1      467       651       30713     999       189       0         0         0         0         0         
1      598       674       30713     189       189       0         0         0         0         0         
1      556       718       30715     199       189       0         0         0         0         0         
1      483       593       30715     189       52        0         0         0         0         0         
1      772       558       30715     290       189       0         0         0         0         0         
1      735       643       30715     131       131       0         0         0         0         0         
1      464       417       30715     168       100       0         0         0         0         0         
1      924       1010      30716     290       290       0         0         0         0         0         
1      881       649       30716     290       189       0         0         0         0         0         
1      345       116       30716     299       9         0         0         0         0         0         
1      685       134       30716     999       9         0         0         0         0         0         
2      1111      1045      30716     50        291       0         0         0         0         0         
1      644       715       30716     131       131       0         0         0         0         0         
1      556       79        30717     199       98        0         0         0         0         0         
1      838       119       30717     290       286       0         0         0         0         0         
1      369       458       30717     52        52        0         0         0         0         0         
1      839       488       30717     290       199       0         0         0         0         0         
1      461       627       30717     189       189       0         0         0         0         0         
2      894       603       30717     291       189       0         0         0         0         0         
1      115       456       30717     9         52        0         0         0         0         0         
1      559       459       30718     189       189       0         0         0         0         0         
1      1068      735       30718     291       131       0         0         0         0         0         
3      534       580       30718     199       189       0         0         0         0         0         
2      769       488       30719     290       199       0         0         0         0         0         
1      466       47        30719     199       98        0         0         0         0         0         
1      511       604       30719     199       189       0         0         0         0         0         
